NAME : amz0538.86678_85178.tour
COMMENT : Cost = 86678_85178
COMMENT : Found by LKH-AMZ [Keld Helsgaun] Sun May 11 12:33:59 2025
COMMENT : TW viol.: 0 #: 0
TYPE : TOUR
DIMENSION : 83
TOUR_SECTION
35
18
78
34
20
49
11
29
16
82
72
61
65
28
54
17
9
25
44
63
68
42
14
60
52
41
79
43
59
45
51
75
66
21
15
32
37
24
76
67
70
62
48
55
10
26
4
50
1
27
22
30
53
56
13
58
73
33
36
5
80
12
6
69
3
31
38
57
40
47
81
8
19
83
74
77
46
7
23
2
39
71
64
-1
EOF
